
;this file is automatically generated: Fri Aug 05 18:23:24 IST 2016

;declarations generated

(declare-fun oclExcludes ( Int Int) Bool )
(declare-fun oclSelect ( Int Bool) Int )
(declare-fun type_d4ed5c11_f717_46a4_8240_bf5b536706c4_D ( Int) Bool )
(declare-fun Cardinality ( Int) Int )
(declare-fun type_9fba852a_2f5c_4dc2_9027_5b6ef8c149b2_C ( Int) Bool )
(declare-fun container_ ( Int) Int )
(declare-fun type_4855666b_23b6_4676_81f7_baaa79f24c5e_B ( Int) Bool )
(declare-fun type_ad997878_bd69_40ef_8238_fc3c8b00a10a_A ( Int) Bool )
(declare-fun oclIncludes ( Int Int) Bool )
(declare-fun aux1 () Int )
(declare-fun aux0 () Int )
(declare-fun aux3 () Int )
(declare-fun aux2 () Int )
(declare-fun obj_f4da7764_ba64_4c7a_8b44_df0c90420c24 ( Int) Int )
(declare-fun aux4 () Int )
(declare-fun weight4 () Int )
(declare-fun weight3 () Int )
(declare-fun ObjAt ( Int Int) Int )
(declare-fun weight2 () Int )
(declare-fun weight1 () Int )
(declare-fun weight0 () Int )

;formula(s) generated
(assert (and (>= aux0 0) (<= aux0 1)))
(assert (or (or (forall ((b Int)) (=> (and ( type_4855666b_23b6_4676_81f7_baaa79f24c5e_B b )  ( type_ad997878_bd69_40ef_8238_fc3c8b00a10a_A b ) ) (forall ((c Int)) (=> (and ( type_9fba852a_2f5c_4dc2_9027_5b6ef8c149b2_C c )  ( type_ad997878_bd69_40ef_8238_fc3c8b00a10a_A c ) ) (not (= ( obj_f4da7764_ba64_4c7a_8b44_df0c90420c24 b )  ( obj_f4da7764_ba64_4c7a_8b44_df0c90420c24 c ) ) ))))) (and (= aux0 1) true)) (and (= aux0 0) false)))
(assert (and (=> (= aux0 0) (= weight0 1)) (=> (= aux0 1) (= weight0 0))))
(assert (and (>= aux1 0) (<= aux1 1)))
(assert (and (>= aux2 0) (<= aux2 1)))
(assert (and (>= aux3 0) (<= aux3 1)))
(assert (and (>= aux4 0) (<= aux4 1)))
(assert (or (or (exists ((p Int)) ( type_ad997878_bd69_40ef_8238_fc3c8b00a10a_A ( obj_f4da7764_ba64_4c7a_8b44_df0c90420c24 p )  ) ) (and (= aux1 1) true)) (and (= aux1 0) false)))
(assert (and (=> (= aux1 0) (= weight1 1)) (=> (= aux1 1) (= weight1 0))))
(assert (or (or (exists ((p Int)) (and ( type_4855666b_23b6_4676_81f7_baaa79f24c5e_B ( obj_f4da7764_ba64_4c7a_8b44_df0c90420c24 p )  )  ( type_ad997878_bd69_40ef_8238_fc3c8b00a10a_A ( obj_f4da7764_ba64_4c7a_8b44_df0c90420c24 p )  ) )) (and (= aux2 1) true)) (and (= aux2 0) false)))
(assert (and (=> (= aux2 0) (= weight2 1)) (=> (= aux2 1) (= weight2 0))))
(assert (or (or (exists ((p Int)) (and ( type_9fba852a_2f5c_4dc2_9027_5b6ef8c149b2_C ( obj_f4da7764_ba64_4c7a_8b44_df0c90420c24 p )  )  ( type_ad997878_bd69_40ef_8238_fc3c8b00a10a_A ( obj_f4da7764_ba64_4c7a_8b44_df0c90420c24 p )  ) )) (and (= aux3 1) true)) (and (= aux3 0) false)))
(assert (and (=> (= aux3 0) (= weight3 1)) (=> (= aux3 1) (= weight3 0))))
(assert (or (or (exists ((p Int)) (and (and (and ( type_d4ed5c11_f717_46a4_8240_bf5b536706c4_D ( obj_f4da7764_ba64_4c7a_8b44_df0c90420c24 p )  )  ( type_ad997878_bd69_40ef_8238_fc3c8b00a10a_A ( obj_f4da7764_ba64_4c7a_8b44_df0c90420c24 p )  ) ) ( type_4855666b_23b6_4676_81f7_baaa79f24c5e_B ( obj_f4da7764_ba64_4c7a_8b44_df0c90420c24 p )  ) ) ( type_9fba852a_2f5c_4dc2_9027_5b6ef8c149b2_C ( obj_f4da7764_ba64_4c7a_8b44_df0c90420c24 p )  ) )) (and (= aux4 1) true)) (and (= aux4 0) false)))
(assert (and (=> (= aux4 0) (= weight4 1)) (=> (= aux4 1) (= weight4 0))))
(assert (= (+ (+ (+ (+ weight0 weight1) weight2) weight3) weight4) 4))
(assert (not (and (and (and (and (= weight0 1) (= weight1 1)) (= weight2 1)) (= weight3 1)) (= weight4 0)) ))
(assert (not (and (and (and (and (= weight0 0) (= weight1 1)) (= weight2 1)) (= weight3 1)) (= weight4 1)) ))
